maximize
obj: 436 x_1_ + 1051 x_2_ + 644 x_3_ + 737 x_4_ + 836 x_5_ + 513 x_6_ + 806 x_7_ + 560 x_8_ + 268 x_9_ + 606 x_10_ + 764 x_11_ + 817 x_12_ + 1077 x_13_ + 257 x_14_ + 615 x_15_ + 620 x_16_ + 402 x_17_ + 399 x_18_ + 508 x_19_ + 743 x_20_ + 728 x_21_ + 644 x_22_ + 581 x_23_ + 790 x_24_ + 284 x_25_ + 772 x_26_ + 757 x_27_ + 1069 x_28_ + 903 x_29_ + 613 x_30_ + 645 x_31_ + 503 x_32_ + 901 x_33_ + 906 x_34_ + 729 x_35_ + 764 x_36_ + 497 x_37_ + 865 x_38_ + 613 x_39_ + 1168 x_40_ + 322 x_41_ + 762 x_42_ + 918 x_43_ + 725 x_44_ + 726 x_45_ + 1263 x_46_ + 902 x_47_ + 766 x_48_ + 539 x_49_ + 440 x_50_ + 555 x_51_ + 345 x_52_ + 455 x_53_ + 772 x_54_ + 92 x_55_ + 223 x_56_ + 745 x_57_ + 899 x_58_ + 845 x_59_ + 419 x_60_ + 800 x_61_ + 809 x_62_ + 490 x_63_ + 625 x_64_ + 450 x_65_ + 860 x_66_ + 491 x_67_ + 334 x_68_ + 812 x_69_ + 699 x_70_ + 711 x_71_ + 821 x_72_ + 1071 x_73_ + 576 x_74_ + 840 x_75_ + 639 x_76_ + 544 x_77_ + 810 x_78_ + 757 x_79_ + 825 x_80_ + 824 x_81_ + 1215 x_82_ + 352 x_83_ + 643 x_84_ + 586 x_85_ + 674 x_86_ + 759 x_87_ + 586 x_88_ + 626 x_89_ + 607 x_90_ + 726 x_91_ + 553 x_92_ + 640 x_93_ + 710 x_94_ + 1107 x_95_ + 546 x_96_ + 935 x_97_ + 604 x_98_ + 462 x_99_ + 340 x_100_ + 430 x_101_ + 876 x_102_ + 675 x_103_ + 798 x_104_ + 763 x_105_ + 874 x_106_ + 729 x_107_ + 907 x_108_ + 751 x_109_ + 788 x_110_ + 680 x_111_ + 706 x_112_ + 478 x_113_ + 532 x_114_ + 684 x_115_ + 597 x_116_ + 652 x_117_ + 903 x_118_ + 571 x_119_ + 448 x_120_ + 738 x_121_ + 804 x_122_ + 794 x_123_ + 578 x_124_ + 970 x_125_ + 741 x_126_ + 760 x_127_ + 803 x_128_ + 764 x_129_ + 486 x_130_ + 732 x_131_ + 537 x_132_ + 508 x_133_ + 859 x_134_ + 1064 x_135_ + 587 x_136_ + 298 x_137_ + 694 x_138_ + 473 x_139_ + 526 x_140_ + 867 x_141_ + 629 x_142_ + 556 x_143_ + 1033 x_144_ + 1011 x_145_ + 659 x_146_ + 797 x_147_ + 846 x_148_ + 621 x_149_ + 986 x_150_ + 873 x_151_ + 810 x_152_ + 586 x_153_ + 501 x_154_ + 557 x_155_ + 543 x_156_ + 448 x_157_ + 669 x_158_ + 201 x_159_ + 391 x_160_ + 558 x_161_ + 807 x_162_ + 634 x_163_ + 805 x_164_ + 685 x_165_ + 502 x_166_ + 466 x_167_ + 1073 x_168_ + 607 x_169_ + 907 x_170_ + 452 x_171_ + 595 x_172_ + 538 x_173_ + 526 x_174_ + 638 x_175_ + 725 x_176_ + 476 x_177_ + 493 x_178_ + 767 x_179_ + 747 x_180_ + 517 x_181_ + 1322 x_182_ + 598 x_183_ + 881 x_184_ + 1236 x_185_ + 1107 x_186_ + 467 x_187_ + 962 x_188_ + 554 x_189_ + 363 x_190_ + 1012 x_191_ + 828 x_192_ + 470 x_193_ + 583 x_194_ + 410 x_195_ + 802 x_196_ + 741 x_197_ + 1180 x_198_ + 803 x_199_ + 1000 x_200_ + 496 x_201_ + 653 x_202_ + 184 x_203_ + 385 x_204_ + 771 x_205_ + 521 x_206_ + 365 x_207_ + 493 x_208_ + 492 x_209_ + 339 x_210_ + 471 x_211_ + 718 x_212_ + 725 x_213_ + 979 x_214_ + 563 x_215_ + 731 x_216_ + 480 x_217_ + 537 x_218_ + 791 x_219_ + 533 x_220_ + 800 x_221_ + 582 x_222_ + 577 x_223_ + 1009 x_224_ + 848 x_225_ + 294 x_226_ + 403 x_227_ + 638 x_228_ + 958 x_229_ + 847 x_230_ + 653 x_231_ + 589 x_232_ + 1183 x_233_ + 295 x_234_ + 352 x_235_ + 612 x_236_ + 547 x_237_ + 824 x_238_ + 882 x_239_ + 471 x_240_ + 681 x_241_ + 565 x_242_ + 454 x_243_ + 1032 x_244_ + 1166 x_245_ + 422 x_246_ + 530 x_247_ + 671 x_248_ + 436 x_249_ + 757 x_250_ + 1000 s_1_ + 1000 s_2_ + 1000 s_3_ + 1000 s_4_ + 1000 s_5_ - 1000 ss_1_ - 1000 ss_2_ - 1000 ss_3_ - 1000 ss_4_ - 1000 ss_5_
subject to
c6: 1 s_1_ + 328 x_1_ + 679 x_2_ + 520 x_3_ + 716 x_4_ + 795 x_5_ + 342 x_6_ + 364 x_7_ + 344 x_8_ + 43 x_9_ + 61 x_10_ + 460 x_11_ + 424 x_12_ + 212 x_13_ + 447 x_14_ + 134 x_15_ + 519 x_16_ + 395 x_17_ + 179 x_18_ + 673 x_19_ + 893 x_20_ + 138 x_21_ + 869 x_22_ + 227 x_23_ + 825 x_24_ + 164 x_25_ + 731 x_26_ + 336 x_27_ + 855 x_28_ + 487 x_29_ + 847 x_30_ + 861 x_31_ + 575 x_32_ + 748 x_33_ + 134 x_34_ + 791 x_35_ + 858 x_36_ + 288 x_37_ + 541 x_38_ + 55 x_39_ + 421 x_40_ + 376 x_41_ + 959 x_42_ + 794 x_43_ + 308 x_44_ + 479 x_45_ + 878 x_46_ + 881 x_47_ + 278 x_48_ + 119 x_49_ + 855 x_50_ + 510 x_51_ + 234 x_52_ + 928 x_53_ + 668 x_54_ + 377 x_55_ + 804 x_56_ + 52 x_57_ + 631 x_58_ + 341 x_59_ + 64 x_60_ + 502 x_61_ + 396 x_62_ + 350 x_63_ + 674 x_64_ + 470 x_65_ + 620 x_66_ + 431 x_67_ + 971 x_68_ + 966 x_69_ + 544 x_70_ + 422 x_71_ + 797 x_72_ + 857 x_73_ + 860 x_74_ + 598 x_75_ + 993 x_76_ + 320 x_77_ + 727 x_78_ + 871 x_79_ + 532 x_80_ + 516 x_81_ + 580 x_82_ + 879 x_83_ + 182 x_84_ + 283 x_85_ + 890 x_86_ + 631 x_87_ + 46 x_88_ + 739 x_89_ + 348 x_90_ + 46 x_91_ + 766 x_92_ + 431 x_93_ + 111 x_94_ + 870 x_95_ + 242 x_96_ + 317 x_97_ + 431 x_98_ + 720 x_99_ + 111 x_100_ + 27 x_101_ + 752 x_102_ + 24 x_103_ + 622 x_104_ + 517 x_105_ + 757 x_106_ + 624 x_107_ + 990 x_108_ + 127 x_109_ + 531 x_110_ + 958 x_111_ + 259 x_112_ + 562 x_113_ + 315 x_114_ + 117 x_115_ + 280 x_116_ + 361 x_117_ + 945 x_118_ + 644 x_119_ + 229 x_120_ + 329 x_121_ + 687 x_122_ + 177 x_123_ + 113 x_124_ + 11 x_125_ + 689 x_126_ + 755 x_127_ + 702 x_128_ + 24 x_129_ + 495 x_130_ + 817 x_131_ + 846 x_132_ + 593 x_133_ + 117 x_134_ + 686 x_135_ + 105 x_136_ + 227 x_137_ + 41 x_138_ + 810 x_139_ + 556 x_140_ + 517 x_141_ + 841 x_142_ + 31 x_143_ + 561 x_144_ + 146 x_145_ + 491 x_146_ + 672 x_147_ + 50 x_148_ + 548 x_149_ + 793 x_150_ + 641 x_151_ + 394 x_152_ + 927 x_153_ + 394 x_154_ + 574 x_155_ + 929 x_156_ + 200 x_157_ + 538 x_158_ + 142 x_159_ + 69 x_160_ + 561 x_161_ + 213 x_162_ + 228 x_163_ + 648 x_164_ + 7 x_165_ + 142 x_166_ + 496 x_167_ + 583 x_168_ + 398 x_169_ + 505 x_170_ + 130 x_171_ + 388 x_172_ + 24 x_173_ + 458 x_174_ + 938 x_175_ + 136 x_176_ + 154 x_177_ + 172 x_178_ + 407 x_179_ + 754 x_180_ + 379 x_181_ + 713 x_182_ + 342 x_183_ + 405 x_184_ + 779 x_185_ + 613 x_186_ + 191 x_187_ + 317 x_188_ + 112 x_189_ + 153 x_190_ + 894 x_191_ + 720 x_192_ + 272 x_193_ + 80 x_194_ + 870 x_195_ + 269 x_196_ + 533 x_197_ + 579 x_198_ + 806 x_199_ + 214 x_200_ + 43 x_201_ + 412 x_202_ + 49 x_203_ + 460 x_204_ + 106 x_205_ + 805 x_206_ + 558 x_207_ + 38 x_208_ + 84 x_209_ + 591 x_210_ + 764 x_211_ + 329 x_212_ + 846 x_213_ + 466 x_214_ + 194 x_215_ + 487 x_216_ + 671 x_217_ + 655 x_218_ + 394 x_219_ + 359 x_220_ + 850 x_221_ + 814 x_222_ + 140 x_223_ + 392 x_224_ + 803 x_225_ + 64 x_226_ + 546 x_227_ + 669 x_228_ + 427 x_229_ + 732 x_230_ + 695 x_231_ + 55 x_232_ + 483 x_233_ + 123 x_234_ + 838 x_235_ + 189 x_236_ + 978 x_237_ + 787 x_238_ + 268 x_239_ + 148 x_240_ + 735 x_241_ + 379 x_242_ + 900 x_243_ + 527 x_244_ + 934 x_245_ + 666 x_246_ + 447 x_247_ + 454 x_248_ + 690 x_249_ + 232 x_250_ <= 60297
c7: 1 s_2_ + 664 x_1_ + 806 x_2_ + 438 x_3_ + 818 x_4_ + 504 x_5_ + 875 x_6_ + 108 x_7_ + 998 x_8_ + 166 x_9_ + 784 x_10_ + 97 x_11_ + 227 x_12_ + 276 x_13_ + 218 x_14_ + 111 x_15_ + 701 x_16_ + 418 x_17_ + 736 x_18_ + 8 x_19_ + 91 x_20_ + 939 x_21_ + 475 x_22_ + 747 x_23_ + 641 x_24_ + 18 x_25_ + 469 x_26_ + 9 x_27_ + 180 x_28_ + 74 x_29_ + 787 x_30_ + 532 x_31_ + 225 x_32_ + 360 x_33_ + 689 x_34_ + 588 x_35_ + 780 x_36_ + 409 x_37_ + 626 x_38_ + 977 x_39_ + 418 x_40_ + 291 x_41_ + 293 x_42_ + 408 x_43_ + 469 x_44_ + 925 x_45_ + 943 x_46_ + 390 x_47_ + 843 x_48_ + 357 x_49_ + 699 x_50_ + 253 x_51_ + 493 x_52_ + 13 x_53_ + 385 x_54_ + 65 x_55_ + 576 x_56_ + 268 x_57_ + 857 x_58_ + 433 x_59_ + 654 x_60_ + 86 x_61_ + 717 x_62_ + 662 x_63_ + 681 x_64_ + 259 x_65_ + 18 x_66_ + 237 x_67_ + 101 x_68_ + 473 x_69_ + 157 x_70_ + 44 x_71_ + 259 x_72_ + 129 x_73_ + 318 x_74_ + 679 x_75_ + 348 x_76_ + 513 x_77_ + 294 x_78_ + 88 x_79_ + 716 x_80_ + 102 x_81_ + 727 x_82_ + 991 x_83_ + 250 x_84_ + 120 x_85_ + 71 x_86_ + 703 x_87_ + 321 x_88_ + 379 x_89_ + 300 x_90_ + 717 x_91_ + 56 x_92_ + 449 x_93_ + 910 x_94_ + 686 x_95_ + 585 x_96_ + 481 x_97_ + 472 x_98_ + 472 x_99_ + 428 x_100_ + 645 x_101_ + 108 x_102_ + 708 x_103_ + 857 x_104_ + 999 x_105_ + 489 x_106_ + 150 x_107_ + 376 x_108_ + 409 x_109_ + 998 x_110_ + 813 x_111_ + 352 x_112_ + 215 x_113_ + 604 x_114_ + 424 x_115_ + 705 x_116_ + 925 x_117_ + 85 x_118_ + 751 x_119_ + 947 x_120_ + 31 x_121_ + 150 x_122_ + 597 x_123_ + 370 x_124_ + 700 x_125_ + 853 x_126_ + 446 x_127_ + 784 x_128_ + 794 x_129_ + 778 x_130_ + 140 x_131_ + 265 x_132_ + 304 x_133_ + 711 x_134_ + 210 x_135_ + 485 x_136_ + 102 x_137_ + 648 x_138_ + 517 x_139_ + 543 x_140_ + 13 x_141_ + 305 x_142_ + 477 x_143_ + 952 x_144_ + 437 x_145_ + 930 x_146_ + 975 x_147_ + 451 x_148_ + 355 x_149_ + 571 x_150_ + 368 x_151_ + 158 x_152_ + 479 x_153_ + 735 x_154_ + 497 x_155_ + 134 x_156_ + 103 x_157_ + 626 x_158_ + 693 x_159_ + 599 x_160_ + 613 x_161_ + 105 x_162_ + 707 x_163_ + 597 x_164_ + 392 x_165_ + 22 x_166_ + 396 x_167_ + 814 x_168_ + 285 x_169_ + 377 x_170_ + 468 x_171_ + 396 x_172_ + 452 x_173_ + 126 x_174_ + 601 x_175_ + 651 x_176_ + 91 x_177_ + 209 x_178_ + 988 x_179_ + 167 x_180_ + 67 x_181_ + 569 x_182_ + 18 x_183_ + 363 x_184_ + 628 x_185_ + 894 x_186_ + 297 x_187_ + 897 x_188_ + 185 x_189_ + 900 x_190_ + 179 x_191_ + 981 x_192_ + 699 x_193_ + 598 x_194_ + 165 x_195_ + 728 x_196_ + 350 x_197_ + 761 x_198_ + 652 x_199_ + 684 x_200_ + 278 x_201_ + 701 x_202_ + 308 x_203_ + 260 x_204_ + 655 x_205_ + 196 x_206_ + 472 x_207_ + 218 x_208_ + 143 x_209_ + 224 x_210_ + 264 x_211_ + 782 x_212_ + 285 x_213_ + 407 x_214_ + 773 x_215_ + 833 x_216_ + 262 x_217_ + 141 x_218_ + 798 x_219_ + 533 x_220_ + 971 x_221_ + 245 x_222_ + 265 x_223_ + 282 x_224_ + 227 x_225_ + 607 x_226_ + 120 x_227_ + 744 x_228_ + 346 x_229_ + 936 x_230_ + 665 x_231_ + 105 x_232_ + 919 x_233_ + 157 x_234_ + 99 x_235_ + 554 x_236_ + 278 x_237_ + 845 x_238_ + 985 x_239_ + 124 x_240_ + 210 x_241_ + 201 x_242_ + 289 x_243_ + 775 x_244_ + 424 x_245_ + 77 x_246_ + 474 x_247_ + 545 x_248_ + 580 x_249_ + 731 x_250_ <= 58416
c8: 1 s_3_ + 791 x_1_ + 161 x_2_ + 748 x_3_ + 52 x_4_ + 613 x_5_ + 559 x_6_ + 255 x_7_ + 765 x_8_ + 174 x_9_ + 520 x_10_ + 347 x_11_ + 451 x_12_ + 731 x_13_ + 250 x_14_ + 696 x_15_ + 255 x_16_ + 59 x_17_ + 403 x_18_ + 473 x_19_ + 528 x_20_ + 575 x_21_ + 474 x_22_ + 788 x_23_ + 339 x_24_ + 9 x_25_ + 178 x_26_ + 701 x_27_ + 858 x_28_ + 335 x_29_ + 874 x_30_ + 591 x_31_ + 432 x_32_ + 684 x_33_ + 758 x_34_ + 838 x_35_ + 304 x_36_ + 961 x_37_ + 499 x_38_ + 717 x_39_ + 376 x_40_ + 382 x_41_ + 709 x_42_ + 818 x_43_ + 34 x_44_ + 450 x_45_ + 697 x_46_ + 747 x_47_ + 716 x_48_ + 859 x_49_ + 25 x_50_ + 423 x_51_ + 292 x_52_ + 47 x_53_ + 75 x_54_ + 252 x_55_ + 117 x_56_ + 55 x_57_ + 272 x_58_ + 828 x_59_ + 928 x_60_ + 110 x_61_ + 597 x_62_ + 23 x_63_ + 683 x_64_ + 413 x_65_ + 779 x_66_ + 519 x_67_ + 346 x_68_ + 116 x_69_ + 959 x_70_ + 661 x_71_ + 25 x_72_ + 952 x_73_ + 289 x_74_ + 951 x_75_ + 540 x_76_ + 727 x_77_ + 189 x_78_ + 318 x_79_ + 236 x_80_ + 396 x_81_ + 652 x_82_ + 577 x_83_ + 778 x_84_ + 210 x_85_ + 831 x_86_ + 91 x_87_ + 921 x_88_ + 747 x_89_ + 424 x_90_ + 13 x_91_ + 822 x_92_ + 390 x_93_ + 425 x_94_ + 947 x_95_ + 438 x_96_ + 834 x_97_ + 233 x_98_ + 103 x_99_ + 883 x_100_ + 190 x_101_ + 962 x_102_ + 553 x_103_ + 198 x_104_ + 84 x_105_ + 716 x_106_ + 737 x_107_ + 883 x_108_ + 304 x_109_ + 871 x_110_ + 538 x_111_ + 255 x_112_ + 484 x_113_ + 603 x_114_ + 878 x_115_ + 987 x_116_ + 249 x_117_ + 119 x_118_ + 209 x_119_ + 413 x_120_ + 629 x_121_ + 19 x_122_ + 495 x_123_ + 131 x_124_ + 304 x_125_ + 239 x_126_ + 548 x_127_ + 623 x_128_ + 956 x_129_ + 911 x_130_ + 704 x_131_ + 209 x_132_ + 671 x_133_ + 469 x_134_ + 967 x_135_ + 432 x_136_ + 130 x_137_ + 69 x_138_ + 897 x_139_ + 637 x_140_ + 767 x_141_ + 358 x_142_ + 950 x_143_ + 189 x_144_ + 629 x_145_ + 678 x_146_ + 999 x_147_ + 509 x_148_ + 651 x_149_ + 715 x_150_ + 389 x_151_ + 699 x_152_ + 166 x_153_ + 224 x_154_ + 243 x_155_ + 345 x_156_ + 818 x_157_ + 550 x_158_ + 658 x_159_ + 376 x_160_ + 778 x_161_ + 926 x_162_ + 856 x_163_ + 981 x_164_ + 48 x_165_ + 303 x_166_ + 591 x_167_ + 470 x_168_ + 667 x_169_ + 372 x_170_ + 415 x_171_ + 436 x_172_ + 235 x_173_ + 363 x_174_ + 443 x_175_ + 894 x_176_ + 790 x_177_ + 230 x_178_ + 180 x_179_ + 65 x_180_ + 208 x_181_ + 793 x_182_ + 760 x_183_ + 625 x_184_ + 508 x_185_ + 760 x_186_ + 256 x_187_ + 774 x_188_ + 510 x_189_ + 574 x_190_ + 757 x_191_ + 575 x_192_ + 988 x_193_ + 405 x_194_ + 664 x_195_ + 447 x_196_ + 183 x_197_ + 761 x_198_ + 67 x_199_ + 498 x_200_ + 957 x_201_ + 506 x_202_ + 538 x_203_ + 270 x_204_ + 900 x_205_ + 533 x_206_ + 785 x_207_ + 274 x_208_ + 383 x_209_ + 162 x_210_ + 389 x_211_ + 199 x_212_ + 552 x_213_ + 468 x_214_ + 866 x_215_ + 785 x_216_ + 265 x_217_ + 130 x_218_ + 800 x_219_ + 323 x_220_ + 954 x_221_ + 160 x_222_ + 204 x_223_ + 309 x_224_ + 962 x_225_ + 28 x_226_ + 727 x_227_ + 216 x_228_ + 478 x_229_ + 770 x_230_ + 609 x_231_ + 211 x_232_ + 954 x_233_ + 367 x_234_ + 11 x_235_ + 725 x_236_ + 27 x_237_ + 453 x_238_ + 928 x_239_ + 369 x_240_ + 744 x_241_ + 163 x_242_ + 321 x_243_ + 815 x_244_ + 388 x_245_ + 249 x_246_ + 130 x_247_ + 209 x_248_ + 268 x_249_ + 391 x_250_ <= 62282
c9: 1 s_4_ + 97 x_1_ + 793 x_2_ + 336 x_3_ + 323 x_4_ + 472 x_5_ + 411 x_6_ + 532 x_7_ + 724 x_8_ + 374 x_9_ + 718 x_10_ + 636 x_11_ + 426 x_12_ + 546 x_13_ + 281 x_14_ + 65 x_15_ + 633 x_16_ + 378 x_17_ + 279 x_18_ + 718 x_19_ + 338 x_20_ + 167 x_21_ + 266 x_22_ + 433 x_23_ + 472 x_24_ + 473 x_25_ + 409 x_26_ + 954 x_27_ + 818 x_28_ + 626 x_29_ + 674 x_30_ + 501 x_31_ + 846 x_32_ + 939 x_33_ + 806 x_34_ + 680 x_35_ + 784 x_36_ + 680 x_37_ + 919 x_38_ + 451 x_39_ + 509 x_40_ + 501 x_41_ + 50 x_42_ + 505 x_43_ + 226 x_44_ + 925 x_45_ + 819 x_46_ + 387 x_47_ + 539 x_48_ + 375 x_49_ + 469 x_50_ + 151 x_51_ + 108 x_52_ + 911 x_53_ + 263 x_54_ + 931 x_55_ + 113 x_56_ + 837 x_57_ + 605 x_58_ + 868 x_59_ + 255 x_60_ + 767 x_61_ + 700 x_62_ + 405 x_63_ + 887 x_64_ + 848 x_65_ + 579 x_66_ + 544 x_67_ + 358 x_68_ + 597 x_69_ + 386 x_70_ + 693 x_71_ + 413 x_72_ + 963 x_73_ + 595 x_74_ + 166 x_75_ + 601 x_76_ + 67 x_77_ + 987 x_78_ + 702 x_79_ + 866 x_80_ + 305 x_81_ + 959 x_82_ + 37 x_83_ + 548 x_84_ + 751 x_85_ + 862 x_86_ + 941 x_87_ + 359 x_88_ + 900 x_89_ + 619 x_90_ + 513 x_91_ + 343 x_92_ + 620 x_93_ + 247 x_94_ + 642 x_95_ + 923 x_96_ + 838 x_97_ + 688 x_98_ + 329 x_99_ + 566 x_100_ + 335 x_101_ + 804 x_102_ + 156 x_103_ + 791 x_104_ + 650 x_105_ + 867 x_106_ + 841 x_107_ + 152 x_108_ + 780 x_109_ + 848 x_110_ + 788 x_111_ + 880 x_112_ + 433 x_113_ + 237 x_114_ + 928 x_115_ + 377 x_116_ + 625 x_117_ + 81 x_118_ + 319 x_119_ + 338 x_120_ + 951 x_121_ + 491 x_122_ + 881 x_123_ + 962 x_124_ + 895 x_125_ + 787 x_126_ + 262 x_127_ + 145 x_128_ + 957 x_129_ + 69 x_130_ + 740 x_131_ + 863 x_132_ + 654 x_133_ + 141 x_134_ + 959 x_135_ + 704 x_136_ + 408 x_137_ + 737 x_138_ + 524 x_139_ + 110 x_140_ + 448 x_141_ + 977 x_142_ + 36 x_143_ + 469 x_144_ + 54 x_145_ + 151 x_146_ + 216 x_147_ + 252 x_148_ + 114 x_149_ + 606 x_150_ + 913 x_151_ + 425 x_152_ + 702 x_153_ + 389 x_154_ + 501 x_155_ + 233 x_156_ + 185 x_157_ + 1000 x_158_ + 840 x_159_ + 530 x_160_ + 519 x_161_ + 18 x_162_ + 552 x_163_ + 569 x_164_ + 729 x_165_ + 877 x_166_ + 143 x_167_ + 610 x_168_ + 653 x_169_ + 901 x_170_ + 46 x_171_ + 411 x_172_ + 334 x_173_ + 159 x_174_ + 598 x_175_ + 232 x_176_ + 961 x_177_ + 445 x_178_ + 830 x_179_ + 228 x_180_ + 685 x_181_ + 639 x_182_ + 491 x_183_ + 548 x_184_ + 968 x_185_ + 72 x_186_ + 275 x_187_ + 140 x_188_ + 425 x_189_ + 542 x_190_ + 336 x_191_ + 141 x_192_ + 794 x_193_ + 887 x_194_ + 381 x_195_ + 477 x_196_ + 81 x_197_ + 700 x_198_ + 970 x_199_ + 909 x_200_ + 298 x_201_ + 182 x_202_ + 311 x_203_ + 624 x_204_ + 583 x_205_ + 691 x_206_ + 546 x_207_ + 857 x_208_ + 978 x_209_ + 383 x_210_ + 537 x_211_ + 762 x_212_ + 448 x_213_ + 890 x_214_ + 278 x_215_ + 652 x_216_ + 758 x_217_ + 662 x_218_ + 341 x_219_ + 833 x_220_ + 505 x_221_ + 45 x_222_ + 167 x_223_ + 755 x_224_ + 623 x_225_ + 924 x_226_ + 147 x_227_ + 706 x_228_ + 110 x_229_ + 505 x_230_ + 858 x_231_ + 624 x_232_ + 983 x_233_ + 998 x_234_ + 64 x_235_ + 21 x_236_ + 522 x_237_ + 307 x_238_ + 641 x_239_ + 49 x_240_ + 425 x_241_ + 661 x_242_ + 409 x_243_ + 477 x_244_ + 628 x_245_ + 208 x_246_ + 417 x_247_ + 1000 x_248_ + 112 x_249_ + 638 x_250_ <= 67185
c10: 1 s_5_ + 746 x_1_ + 170 x_2_ + 887 x_3_ + 885 x_4_ + 203 x_5_ + 3 x_6_ + 805 x_7_ + 737 x_8_ + 611 x_9_ + 385 x_10_ + 631 x_11_ + 934 x_12_ + 445 x_13_ + 491 x_14_ + 612 x_15_ + 124 x_16_ + 815 x_17_ + 969 x_18_ + 57 x_19_ + 488 x_20_ + 865 x_21_ + 63 x_22_ + 117 x_23_ + 263 x_24_ + 126 x_25_ + 166 x_26_ + 329 x_27_ + 258 x_28_ + 275 x_29_ + 641 x_30_ + 566 x_31_ + 303 x_32_ + 306 x_33_ + 871 x_34_ + 451 x_35_ + 877 x_36_ + 6 x_37_ + 765 x_38_ + 941 x_39_ + 990 x_40_ + 300 x_41_ + 505 x_42_ + 573 x_43_ + 602 x_44_ + 61 x_45_ + 335 x_46_ + 888 x_47_ + 927 x_48_ + 686 x_49_ + 308 x_50_ + 738 x_51_ + 690 x_52_ + 124 x_53_ + 172 x_54_ + 135 x_55_ + 836 x_56_ + 904 x_57_ + 555 x_58_ + 71 x_59_ + 374 x_60_ + 911 x_61_ + 638 x_62_ + 687 x_63_ + 323 x_64_ + 909 x_65_ + 591 x_66_ + 423 x_67_ + 119 x_68_ + 591 x_69_ + 242 x_70_ + 591 x_71_ + 474 x_72_ + 885 x_73_ + 227 x_74_ + 744 x_75_ + 100 x_76_ + 258 x_77_ + 763 x_78_ + 476 x_79_ + 601 x_80_ + 868 x_81_ + 279 x_82_ + 533 x_83_ + 577 x_84_ + 9 x_85_ + 735 x_86_ + 55 x_87_ + 318 x_88_ + 263 x_89_ + 239 x_90_ + 949 x_91_ + 637 x_92_ + 66 x_93_ + 375 x_94_ + 772 x_95_ + 488 x_96_ + 284 x_97_ + 155 x_98_ + 209 x_99_ + 377 x_100_ + 430 x_101_ + 882 x_102_ + 114 x_103_ + 575 x_104_ + 809 x_105_ + 646 x_106_ + 831 x_107_ + 998 x_108_ + 738 x_109_ + 400 x_110_ + 72 x_111_ + 768 x_112_ + 625 x_113_ + 289 x_114_ + 220 x_115_ + 326 x_116_ + 104 x_117_ + 593 x_118_ + 252 x_119_ + 540 x_120_ + 100 x_121_ + 280 x_122_ + 11 x_123_ + 103 x_124_ + 941 x_125_ + 253 x_126_ + 148 x_127_ + 415 x_128_ + 230 x_129_ + 554 x_130_ + 793 x_131_ + 165 x_132_ + 379 x_133_ + 219 x_134_ + 368 x_135_ + 803 x_136_ + 581 x_137_ + 723 x_138_ + 171 x_139_ + 838 x_140_ + 663 x_141_ + 421 x_142_ + 867 x_143_ + 805 x_144_ + 525 x_145_ + 147 x_146_ + 293 x_147_ + 782 x_148_ + 377 x_149_ + 905 x_150_ + 63 x_151_ + 157 x_152_ + 78 x_153_ + 606 x_154_ + 115 x_155_ + 804 x_156_ + 425 x_157_ + 223 x_158_ + 640 x_159_ + 313 x_160_ + 82 x_161_ + 412 x_162_ + 345 x_163_ + 505 x_164_ + 822 x_165_ + 40 x_166_ + 935 x_167_ + 496 x_168_ + 322 x_169_ + 889 x_170_ + 748 x_171_ + 910 x_172_ + 647 x_173_ + 555 x_174_ + 318 x_175_ + 520 x_176_ + 441 x_177_ + 828 x_178_ + 824 x_179_ + 844 x_180_ + 789 x_181_ + 615 x_182_ + 88 x_183_ + 187 x_184_ + 237 x_185_ + 850 x_186_ + 835 x_187_ + 516 x_188_ + 861 x_189_ + 22 x_190_ + 336 x_191_ + 284 x_192_ + 786 x_193_ + 58 x_194_ + 143 x_195_ + 863 x_196_ + 528 x_197_ + 446 x_198_ + 199 x_199_ + 580 x_200_ + 689 x_201_ + 440 x_202_ + 122 x_203_ + 172 x_204_ + 764 x_205_ + 313 x_206_ + 377 x_207_ + 10 x_208_ + 851 x_209_ + 244 x_210_ + 535 x_211_ + 847 x_212_ + 451 x_213_ + 220 x_214_ + 495 x_215_ + 772 x_216_ + 849 x_217_ + 43 x_218_ + 788 x_219_ + 455 x_220_ + 513 x_221_ + 402 x_222_ + 820 x_223_ + 489 x_224_ + 358 x_225_ + 219 x_226_ + 347 x_227_ + 677 x_228_ + 720 x_229_ + 559 x_230_ + 41 x_231_ + 881 x_232_ + 409 x_233_ + 145 x_234_ + 268 x_235_ + 634 x_236_ + 5 x_237_ + 223 x_238_ + 28 x_239_ + 33 x_240_ + 309 x_241_ + 172 x_242_ + 792 x_243_ + 567 x_244_ + 235 x_245_ + 231 x_246_ + 107 x_247_ + 881 x_248_ + 866 x_249_ + 849 x_250_ <= 59561
c1: 1 ss_1_ + 556 x_1_ + 125 x_2_ + 736 x_3_ + 557 x_4_ + 301 x_5_ + 6 x_6_ + 111 x_7_ + 16 x_8_ + 704 x_9_ + 952 x_10_ + 408 x_11_ + 492 x_12_ + 163 x_13_ + 938 x_14_ + 315 x_15_ + 949 x_16_ + 670 x_17_ + 1000 x_18_ + 457 x_19_ + 816 x_20_ + 357 x_21_ + 495 x_22_ + 916 x_23_ + 852 x_24_ + 614 x_25_ + 161 x_26_ + 60 x_27_ + 382 x_28_ + 373 x_29_ + 570 x_30_ + 182 x_31_ + 934 x_32_ + 129 x_33_ + 542 x_34_ + 767 x_35_ + 964 x_36_ + 896 x_37_ + 350 x_38_ + 178 x_39_ + 557 x_40_ + 975 x_41_ + 70 x_42_ + 226 x_43_ + 356 x_44_ + 404 x_45_ + 79 x_46_ + 833 x_47_ + 616 x_48_ + 575 x_49_ + 987 x_50_ + 340 x_51_ + 794 x_52_ + 321 x_53_ + 337 x_54_ + 580 x_55_ + 920 x_56_ + 425 x_57_ + 170 x_58_ + 955 x_59_ + 581 x_60_ + 739 x_61_ + 622 x_62_ + 473 x_63_ + 789 x_64_ + 946 x_65_ + 499 x_66_ + 666 x_67_ + 546 x_68_ + 630 x_69_ + 997 x_70_ + 462 x_71_ + 750 x_72_ + 841 x_73_ + 795 x_74_ + 2 x_75_ + 522 x_76_ + 778 x_77_ + 42 x_78_ + 714 x_79_ + 645 x_80_ + 855 x_81_ + 396 x_82_ + 768 x_83_ + 392 x_84_ + 141 x_85_ + 544 x_86_ + 847 x_87_ + 263 x_88_ + 325 x_89_ + 227 x_90_ + 765 x_91_ + 128 x_92_ + 10 x_93_ + 973 x_94_ + 162 x_95_ + 743 x_96_ + 208 x_97_ + 223 x_98_ + 981 x_99_ + 143 x_100_ + 638 x_101_ + 612 x_102_ + 184 x_103_ + 738 x_104_ + 124 x_105_ + 139 x_106_ + 910 x_107_ + 611 x_108_ + 332 x_109_ + 588 x_110_ + 634 x_111_ + 484 x_112_ + 555 x_113_ + 932 x_114_ + 55 x_115_ + 434 x_116_ + 396 x_117_ + 61 x_118_ + 23 x_119_ + 491 x_120_ + 171 x_121_ + 219 x_122_ + 310 x_123_ + 569 x_124_ + 181 x_125_ + 866 x_126_ + 378 x_127_ + 354 x_128_ + 600 x_129_ + 237 x_130_ + 742 x_131_ + 631 x_132_ + 275 x_133_ + 83 x_134_ + 601 x_135_ + 167 x_136_ + 951 x_137_ + 771 x_138_ + 731 x_139_ + 474 x_140_ + 166 x_141_ + 795 x_142_ + 659 x_143_ + 638 x_144_ + 15 x_145_ + 344 x_146_ + 230 x_147_ + 395 x_148_ + 577 x_149_ + 670 x_150_ + 807 x_151_ + 494 x_152_ + 420 x_153_ + 501 x_154_ + 862 x_155_ + 940 x_156_ + 974 x_157_ + 735 x_158_ + 991 x_159_ + 748 x_160_ + 795 x_161_ + 120 x_162_ + 938 x_163_ + 983 x_164_ + 792 x_165_ + 430 x_166_ + 647 x_167_ + 497 x_168_ + 59 x_169_ + 890 x_170_ + 991 x_171_ + 810 x_172_ + 759 x_173_ + 588 x_174_ + 627 x_175_ + 59 x_176_ + 328 x_177_ + 386 x_178_ + 902 x_179_ + 650 x_180_ + 629 x_181_ + 35 x_182_ + 510 x_183_ + 143 x_184_ + 103 x_185_ + 164 x_186_ + 788 x_187_ + 62 x_188_ + 73 x_189_ + 720 x_190_ + 379 x_191_ + 641 x_192_ + 573 x_193_ + 895 x_194_ + 783 x_195_ + 909 x_196_ + 310 x_197_ + 829 x_198_ + 38 x_199_ + 231 x_200_ + 700 x_201_ + 155 x_202_ + 342 x_203_ + 605 x_204_ + 533 x_205_ + 231 x_206_ + 681 x_207_ + 540 x_208_ + 300 x_209_ + 389 x_210_ + 205 x_211_ + 748 x_212_ + 855 x_213_ + 420 x_214_ + 69 x_215_ + 931 x_216_ + 523 x_217_ + 458 x_218_ + 311 x_219_ + 678 x_220_ + 669 x_221_ + 327 x_222_ + 887 x_223_ + 85 x_224_ + 130 x_225_ + 679 x_226_ + 177 x_227_ + 564 x_228_ + 103 x_229_ + 826 x_230_ + 110 x_231_ + 314 x_232_ + 623 x_233_ + 865 x_234_ + 985 x_235_ + 550 x_236_ + 69 x_237_ + 536 x_238_ + 61 x_239_ + 375 x_240_ + 511 x_241_ + 968 x_242_ + 331 x_243_ + 132 x_244_ + 493 x_245_ + 892 x_246_ + 688 x_247_ + 715 x_248_ + 307 x_249_ + 849 x_250_ >= 64211
c2: 1 ss_2_ + 413 x_1_ + 794 x_2_ + 494 x_3_ + 821 x_4_ + 348 x_5_ + 961 x_6_ + 63 x_7_ + 962 x_8_ + 799 x_9_ + 242 x_10_ + 352 x_11_ + 337 x_12_ + 111 x_13_ + 559 x_14_ + 889 x_15_ + 595 x_16_ + 914 x_17_ + 576 x_18_ + 312 x_19_ + 323 x_20_ + 153 x_21_ + 888 x_22_ + 287 x_23_ + 627 x_24_ + 888 x_25_ + 634 x_26_ + 424 x_27_ + 365 x_28_ + 374 x_29_ + 85 x_30_ + 650 x_31_ + 265 x_32_ + 711 x_33_ + 204 x_34_ + 816 x_35_ + 595 x_36_ + 111 x_37_ + 707 x_38_ + 774 x_39_ + 138 x_40_ + 687 x_41_ + 131 x_42_ + 279 x_43_ + 775 x_44_ + 191 x_45_ + 217 x_46_ + 181 x_47_ + 750 x_48_ + 890 x_49_ + 776 x_50_ + 484 x_51_ + 655 x_52_ + 662 x_53_ + 662 x_54_ + 995 x_55_ + 248 x_56_ + 718 x_57_ + 321 x_58_ + 533 x_59_ + 391 x_60_ + 81 x_61_ + 253 x_62_ + 879 x_63_ + 540 x_64_ + 959 x_65_ + 118 x_66_ + 989 x_67_ + 781 x_68_ + 678 x_69_ + 787 x_70_ + 424 x_71_ + 721 x_72_ + 623 x_73_ + 833 x_74_ + 986 x_75_ + 141 x_76_ + 66 x_77_ + 983 x_78_ + 449 x_79_ + 654 x_80_ + 458 x_81_ + 675 x_82_ + 515 x_83_ + 718 x_84_ + 486 x_85_ + 881 x_86_ + 726 x_87_ + 386 x_88_ + 796 x_89_ + 229 x_90_ + 398 x_91_ + 335 x_92_ + 624 x_93_ + 283 x_94_ + 182 x_95_ + 589 x_96_ + 153 x_97_ + 945 x_98_ + 272 x_99_ + 849 x_100_ + 23 x_101_ + 833 x_102_ + 598 x_103_ + 892 x_104_ + 392 x_105_ + 509 x_106_ + 154 x_107_ + 56 x_108_ + 253 x_109_ + 683 x_110_ + 691 x_111_ + 744 x_112_ + 849 x_113_ + 588 x_114_ + 842 x_115_ + 417 x_116_ + 414 x_117_ + 173 x_118_ + 986 x_119_ + 750 x_120_ + 189 x_121_ + 55 x_122_ + 41 x_123_ + 462 x_124_ + 786 x_125_ + 749 x_126_ + 540 x_127_ + 945 x_128_ + 227 x_129_ + 969 x_130_ + 14 x_131_ + 916 x_132_ + 608 x_133_ + 624 x_134_ + 125 x_135_ + 70 x_136_ + 948 x_137_ + 973 x_138_ + 638 x_139_ + 67 x_140_ + 256 x_141_ + 938 x_142_ + 555 x_143_ + 194 x_144_ + 60 x_145_ + 667 x_146_ + 673 x_147_ + 374 x_148_ + 157 x_149_ + 776 x_150_ + 75 x_151_ + 371 x_152_ + 495 x_153_ + 404 x_154_ + 829 x_155_ + 876 x_156_ + 687 x_157_ + 556 x_158_ + 438 x_159_ + 709 x_160_ + 432 x_161_ + 293 x_162_ + 476 x_163_ + 676 x_164_ + 101 x_165_ + 757 x_166_ + 986 x_167_ + 361 x_168_ + 350 x_169_ + 355 x_170_ + 733 x_171_ + 102 x_172_ + 261 x_173_ + 595 x_174_ + 409 x_175_ + 260 x_176_ + 956 x_177_ + 299 x_178_ + 615 x_179_ + 485 x_180_ + 463 x_181_ + 272 x_182_ + 265 x_183_ + 312 x_184_ + 182 x_185_ + 271 x_186_ + 989 x_187_ + 463 x_188_ + 616 x_189_ + 361 x_190_ + 194 x_191_ + 855 x_192_ + 959 x_193_ + 24 x_194_ + 842 x_195_ + 19 x_196_ + 223 x_197_ + 298 x_198_ + 968 x_199_ + 361 x_200_ + 551 x_201_ + 227 x_202_ + 770 x_203_ + 528 x_204_ + 650 x_205_ + 26 x_206_ + 952 x_207_ + 300 x_208_ + 922 x_209_ + 536 x_210_ + 603 x_211_ + 708 x_212_ + 222 x_213_ + 229 x_214_ + 623 x_215_ + 720 x_216_ + 879 x_217_ + 862 x_218_ + 770 x_219_ + 289 x_220_ + 390 x_221_ + 753 x_222_ + 960 x_223_ + 355 x_224_ + 485 x_225_ + 567 x_226_ + 354 x_227_ + 704 x_228_ + 21 x_229_ + 100 x_230_ + 581 x_231_ + 609 x_232_ + 641 x_233_ + 503 x_234_ + 729 x_235_ + 314 x_236_ + 143 x_237_ + 984 x_238_ + 491 x_239_ + 371 x_240_ + 92 x_241_ + 862 x_242_ + 355 x_243_ + 228 x_244_ + 213 x_245_ + 624 x_246_ + 56 x_247_ + 237 x_248_ + 862 x_249_ + 335 x_250_ >= 64080
c3: 1 ss_3_ + 907 x_1_ + 447 x_2_ + 158 x_3_ + 840 x_4_ + 440 x_5_ + 413 x_6_ + 75 x_7_ + 682 x_8_ + 936 x_9_ + 933 x_10_ + 753 x_11_ + 47 x_12_ + 488 x_13_ + 649 x_14_ + 475 x_15_ + 88 x_16_ + 464 x_17_ + 50 x_18_ + 485 x_19_ + 672 x_20_ + 254 x_21_ + 171 x_22_ + 548 x_23_ + 202 x_24_ + 227 x_25_ + 673 x_26_ + 888 x_27_ + 176 x_28_ + 82 x_29_ + 811 x_30_ + 292 x_31_ + 522 x_32_ + 717 x_33_ + 592 x_34_ + 235 x_35_ + 398 x_36_ + 519 x_37_ + 987 x_38_ + 937 x_39_ + 12 x_40_ + 599 x_41_ + 414 x_42_ + 362 x_43_ + 818 x_44_ + 998 x_45_ + 654 x_46_ + 32 x_47_ + 469 x_48_ + 618 x_49_ + 781 x_50_ + 944 x_51_ + 499 x_52_ + 860 x_53_ + 216 x_54_ + 499 x_55_ + 695 x_56_ + 231 x_57_ + 776 x_58_ + 121 x_59_ + 703 x_60_ + 876 x_61_ + 260 x_62_ + 938 x_63_ + 643 x_64_ + 746 x_65_ + 967 x_66_ + 360 x_67_ + 630 x_68_ + 46 x_69_ + 555 x_70_ + 818 x_71_ + 52 x_72_ + 6 x_73_ + 331 x_74_ + 24 x_75_ + 328 x_76_ + 749 x_77_ + 206 x_78_ + 906 x_79_ + 346 x_80_ + 104 x_81_ + 415 x_82_ + 680 x_83_ + 187 x_84_ + 220 x_85_ + 255 x_86_ + 122 x_87_ + 51 x_88_ + 231 x_89_ + 536 x_90_ + 897 x_91_ + 727 x_92_ + 782 x_93_ + 113 x_94_ + 947 x_95_ + 206 x_96_ + 566 x_97_ + 738 x_98_ + 733 x_99_ + 891 x_100_ + 673 x_101_ + 435 x_102_ + 96 x_103_ + 691 x_104_ + 589 x_105_ + 157 x_106_ + 279 x_107_ + 985 x_108_ + 10 x_109_ + 49 x_110_ + 976 x_111_ + 95 x_112_ + 981 x_113_ + 71 x_114_ + 504 x_115_ + 494 x_116_ + 635 x_117_ + 702 x_118_ + 386 x_119_ + 802 x_120_ + 93 x_121_ + 877 x_122_ + 470 x_123_ + 946 x_124_ + 16 x_125_ + 736 x_126_ + 274 x_127_ + 448 x_128_ + 418 x_129_ + 337 x_130_ + 716 x_131_ + 801 x_132_ + 568 x_133_ + 306 x_134_ + 160 x_135_ + 713 x_136_ + 76 x_137_ + 360 x_138_ + 413 x_139_ + 563 x_140_ + 458 x_141_ + 397 x_142_ + 573 x_143_ + 815 x_144_ + 863 x_145_ + 992 x_146_ + 885 x_147_ + 443 x_148_ + 150 x_149_ + 365 x_150_ + 185 x_151_ + 981 x_152_ + 117 x_153_ + 937 x_154_ + 448 x_155_ + 344 x_156_ + 783 x_157_ + 895 x_158_ + 820 x_159_ + 302 x_160_ + 72 x_161_ + 890 x_162_ + 325 x_163_ + 205 x_164_ + 82 x_165_ + 977 x_166_ + 329 x_167_ + 32 x_168_ + 881 x_169_ + 267 x_170_ + 842 x_171_ + 802 x_172_ + 686 x_173_ + 747 x_174_ + 866 x_175_ + 893 x_176_ + 461 x_177_ + 838 x_178_ + 949 x_179_ + 413 x_180_ + 138 x_181_ + 271 x_182_ + 492 x_183_ + 684 x_184_ + 253 x_185_ + 290 x_186_ + 608 x_187_ + 313 x_188_ + 240 x_189_ + 471 x_190_ + 162 x_191_ + 47 x_192_ + 690 x_193_ + 495 x_194_ + 255 x_195_ + 810 x_196_ + 968 x_197_ + 84 x_198_ + 431 x_199_ + 375 x_200_ + 815 x_201_ + 67 x_202_ + 923 x_203_ + 376 x_204_ + 432 x_205_ + 758 x_206_ + 844 x_207_ + 4 x_208_ + 541 x_209_ + 906 x_210_ + 930 x_211_ + 148 x_212_ + 90 x_213_ + 531 x_214_ + 632 x_215_ + 145 x_216_ + 851 x_217_ + 749 x_218_ + 868 x_219_ + 744 x_220_ + 56 x_221_ + 365 x_222_ + 174 x_223_ + 841 x_224_ + 669 x_225_ + 709 x_226_ + 782 x_227_ + 112 x_228_ + 457 x_229_ + 627 x_230_ + 171 x_231_ + 424 x_232_ + 371 x_233_ + 213 x_234_ + 650 x_235_ + 8 x_236_ + 719 x_237_ + 254 x_238_ + 412 x_239_ + 289 x_240_ + 104 x_241_ + 258 x_242_ + 906 x_243_ + 121 x_244_ + 155 x_245_ + 205 x_246_ + 927 x_247_ + 799 x_248_ + 578 x_249_ + 201 x_250_ >= 61961
c4: 1 ss_4_ + 547 x_1_ + 399 x_2_ + 669 x_3_ + 818 x_4_ + 623 x_5_ + 164 x_6_ + 859 x_7_ + 960 x_8_ + 509 x_9_ + 365 x_10_ + 351 x_11_ + 949 x_12_ + 25 x_13_ + 197 x_14_ + 264 x_15_ + 678 x_16_ + 581 x_17_ + 500 x_18_ + 285 x_19_ + 422 x_20_ + 802 x_21_ + 200 x_22_ + 287 x_23_ + 968 x_24_ + 674 x_25_ + 379 x_26_ + 733 x_27_ + 455 x_28_ + 956 x_29_ + 967 x_30_ + 829 x_31_ + 154 x_32_ + 902 x_33_ + 240 x_34_ + 70 x_35_ + 212 x_36_ + 878 x_37_ + 160 x_38_ + 900 x_39_ + 594 x_40_ + 582 x_41_ + 365 x_42_ + 49 x_43_ + 368 x_44_ + 156 x_45_ + 68 x_46_ + 99 x_47_ + 554 x_48_ + 145 x_49_ + 319 x_50_ + 303 x_51_ + 423 x_52_ + 257 x_53_ + 348 x_54_ + 915 x_55_ + 905 x_56_ + 684 x_57_ + 562 x_58_ + 217 x_59_ + 471 x_60_ + 532 x_61_ + 334 x_62_ + 601 x_63_ + 729 x_64_ + 566 x_65_ + 886 x_66_ + 824 x_67_ + 253 x_68_ + 606 x_69_ + 618 x_70_ + 418 x_71_ + 217 x_72_ + 153 x_73_ + 725 x_74_ + 701 x_75_ + 451 x_76_ + 402 x_77_ + 372 x_78_ + 820 x_79_ + 111 x_80_ + 770 x_81_ + 205 x_82_ + 698 x_83_ + 976 x_84_ + 370 x_85_ + 449 x_86_ + 378 x_87_ + 633 x_88_ + 566 x_89_ + 240 x_90_ + 13 x_91_ + 689 x_92_ + 385 x_93_ + 319 x_94_ + 341 x_95_ + 863 x_96_ + 462 x_97_ + 630 x_98_ + 91 x_99_ + 525 x_100_ + 789 x_101_ + 927 x_102_ + 582 x_103_ + 728 x_104_ + 683 x_105_ + 915 x_106_ + 578 x_107_ + 454 x_108_ + 25 x_109_ + 187 x_110_ + 95 x_111_ + 523 x_112_ + 578 x_113_ + 599 x_114_ + 209 x_115_ + 957 x_116_ + 99 x_117_ + 626 x_118_ + 34 x_119_ + 54 x_120_ + 768 x_121_ + 220 x_122_ + 187 x_123_ + 283 x_124_ + 49 x_125_ + 86 x_126_ + 292 x_127_ + 308 x_128_ + 163 x_129_ + 786 x_130_ + 303 x_131_ + 659 x_132_ + 915 x_133_ + 34 x_134_ + 856 x_135_ + 879 x_136_ + 318 x_137_ + 227 x_138_ + 754 x_139_ + 444 x_140_ + 168 x_141_ + 828 x_142_ + 634 x_143_ + 209 x_144_ + 48 x_145_ + 378 x_146_ + 478 x_147_ + 280 x_148_ + 637 x_149_ + 366 x_150_ + 519 x_151_ + 209 x_152_ + 990 x_153_ + 623 x_154_ + 849 x_155_ + 292 x_156_ + 295 x_157_ + 655 x_158_ + 913 x_159_ + 854 x_160_ + 472 x_161_ + 14 x_162_ + 751 x_163_ + 14 x_164_ + 553 x_165_ + 461 x_166_ + 271 x_167_ + 204 x_168_ + 579 x_169_ + 339 x_170_ + 190 x_171_ + 516 x_172_ + 492 x_173_ + 84 x_174_ + 468 x_175_ + 128 x_176_ + 570 x_177_ + 309 x_178_ + 1 x_179_ + 493 x_180_ + 576 x_181_ + 285 x_182_ + 147 x_183_ + 597 x_184_ + 477 x_185_ + 250 x_186_ + 90 x_187_ + 582 x_188_ + 997 x_189_ + 429 x_190_ + 444 x_191_ + 322 x_192_ + 523 x_193_ + 883 x_194_ + 866 x_195_ + 657 x_196_ + 94 x_197_ + 125 x_198_ + 313 x_199_ + 63 x_200_ + 497 x_201_ + 967 x_202_ + 963 x_203_ + 544 x_204_ + 525 x_205_ + 445 x_206_ + 666 x_207_ + 978 x_208_ + 391 x_209_ + 745 x_210_ + 286 x_211_ + 908 x_212_ + 94 x_213_ + 137 x_214_ + 797 x_215_ + 850 x_216_ + 564 x_217_ + 975 x_218_ + 249 x_219_ + 863 x_220_ + 924 x_221_ + 364 x_222_ + 738 x_223_ + 291 x_224_ + 241 x_225_ + 573 x_226_ + 632 x_227_ + 995 x_228_ + 961 x_229_ + 190 x_230_ + 661 x_231_ + 990 x_232_ + 527 x_233_ + 700 x_234_ + 167 x_235_ + 522 x_236_ + 913 x_237_ + 518 x_238_ + 250 x_239_ + 58 x_240_ + 445 x_241_ + 81 x_242_ + 921 x_243_ + 676 x_244_ + 211 x_245_ + 112 x_246_ + 339 x_247_ + 314 x_248_ + 779 x_249_ + 16 x_250_ >= 60409
c5: 1 ss_5_ + 599 x_1_ + 63 x_2_ + 627 x_3_ + 495 x_4_ + 55 x_5_ + 314 x_6_ + 599 x_7_ + 374 x_8_ + 472 x_9_ + 554 x_10_ + 946 x_11_ + 583 x_12_ + 359 x_13_ + 675 x_14_ + 87 x_15_ + 563 x_16_ + 150 x_17_ + 661 x_18_ + 58 x_19_ + 523 x_20_ + 885 x_21_ + 946 x_22_ + 125 x_23_ + 544 x_24_ + 318 x_25_ + 593 x_26_ + 647 x_27_ + 299 x_28_ + 47 x_29_ + 898 x_30_ + 462 x_31_ + 502 x_32_ + 572 x_33_ + 556 x_34_ + 361 x_35_ + 385 x_36_ + 464 x_37_ + 105 x_38_ + 533 x_39_ + 83 x_40_ + 1 x_41_ + 112 x_42_ + 323 x_43_ + 14 x_44_ + 581 x_45_ + 291 x_46_ + 159 x_47_ + 108 x_48_ + 702 x_49_ + 454 x_50_ + 251 x_51_ + 385 x_52_ + 537 x_53_ + 337 x_54_ + 675 x_55_ + 787 x_56_ + 970 x_57_ + 822 x_58_ + 528 x_59_ + 782 x_60_ + 29 x_61_ + 81 x_62_ + 430 x_63_ + 957 x_64_ + 599 x_65_ + 52 x_66_ + 314 x_67_ + 180 x_68_ + 877 x_69_ + 28 x_70_ + 115 x_71_ + 483 x_72_ + 451 x_73_ + 434 x_74_ + 494 x_75_ + 849 x_76_ + 212 x_77_ + 520 x_78_ + 178 x_79_ + 354 x_80_ + 251 x_81_ + 72 x_82_ + 770 x_83_ + 806 x_84_ + 580 x_85_ + 97 x_86_ + 80 x_87_ + 821 x_88_ + 379 x_89_ + 635 x_90_ + 508 x_91_ + 988 x_92_ + 748 x_93_ + 542 x_94_ + 41 x_95_ + 451 x_96_ + 87 x_97_ + 107 x_98_ + 658 x_99_ + 636 x_100_ + 426 x_101_ + 284 x_102_ + 7 x_103_ + 605 x_104_ + 904 x_105_ + 430 x_106_ + 266 x_107_ + 349 x_108_ + 984 x_109_ + 519 x_110_ + 726 x_111_ + 815 x_112_ + 953 x_113_ + 420 x_114_ + 971 x_115_ + 419 x_116_ + 875 x_117_ + 335 x_118_ + 294 x_119_ + 549 x_120_ + 122 x_121_ + 664 x_122_ + 792 x_123_ + 462 x_124_ + 248 x_125_ + 751 x_126_ + 108 x_127_ + 305 x_128_ + 153 x_129_ + 428 x_130_ + 170 x_131_ + 769 x_132_ + 64 x_133_ + 554 x_134_ + 720 x_135_ + 618 x_136_ + 476 x_137_ + 25 x_138_ + 705 x_139_ + 986 x_140_ + 478 x_141_ + 400 x_142_ + 37 x_143_ + 591 x_144_ + 387 x_145_ + 925 x_146_ + 960 x_147_ + 838 x_148_ + 10 x_149_ + 361 x_150_ + 756 x_151_ + 82 x_152_ + 824 x_153_ + 368 x_154_ + 784 x_155_ + 894 x_156_ + 505 x_157_ + 458 x_158_ + 976 x_159_ + 70 x_160_ + 387 x_161_ + 21 x_162_ + 91 x_163_ + 76 x_164_ + 573 x_165_ + 664 x_166_ + 956 x_167_ + 522 x_168_ + 667 x_169_ + 546 x_170_ + 424 x_171_ + 891 x_172_ + 963 x_173_ + 202 x_174_ + 85 x_175_ + 764 x_176_ + 906 x_177_ + 368 x_178_ + 896 x_179_ + 607 x_180_ + 218 x_181_ + 38 x_182_ + 989 x_183_ + 312 x_184_ + 573 x_185_ + 49 x_186_ + 253 x_187_ + 762 x_188_ + 265 x_189_ + 731 x_190_ + 820 x_191_ + 155 x_192_ + 966 x_193_ + 269 x_194_ + 934 x_195_ + 932 x_196_ + 477 x_197_ + 359 x_198_ + 979 x_199_ + 357 x_200_ + 421 x_201_ + 992 x_202_ + 117 x_203_ + 734 x_204_ + 569 x_205_ + 778 x_206_ + 590 x_207_ + 872 x_208_ + 826 x_209_ + 748 x_210_ + 676 x_211_ + 881 x_212_ + 691 x_213_ + 728 x_214_ + 529 x_215_ + 821 x_216_ + 923 x_217_ + 169 x_218_ + 803 x_219_ + 896 x_220_ + 224 x_221_ + 217 x_222_ + 570 x_223_ + 13 x_224_ + 59 x_225_ + 202 x_226_ + 935 x_227_ + 837 x_228_ + 38 x_229_ + 124 x_230_ + 719 x_231_ + 660 x_232_ + 114 x_233_ + 745 x_234_ + 903 x_235_ + 746 x_236_ + 579 x_237_ + 69 x_238_ + 852 x_239_ + 489 x_240_ + 54 x_241_ + 182 x_242_ + 599 x_243_ + 740 x_244_ + 233 x_245_ + 935 x_246_ + 414 x_247_ + 447 x_248_ + 576 x_249_ + 960 x_250_ >= 61898
Bounds
s_1_ <= 0
s_2_ <= 0
s_3_ <= 0
s_4_ <= 0
s_5_ <= 0
ss_1_ >= 0
ss_2_ >= 0
ss_3_ >= 0
ss_4_ >= 0
ss_5_ >= 0
Binary
x_1_
x_2_
x_3_
x_4_
x_5_
x_6_
x_7_
x_8_
x_9_
x_10_
x_11_
x_12_
x_13_
x_14_
x_15_
x_16_
x_17_
x_18_
x_19_
x_20_
x_21_
x_22_
x_23_
x_24_
x_25_
x_26_
x_27_
x_28_
x_29_
x_30_
x_31_
x_32_
x_33_
x_34_
x_35_
x_36_
x_37_
x_38_
x_39_
x_40_
x_41_
x_42_
x_43_
x_44_
x_45_
x_46_
x_47_
x_48_
x_49_
x_50_
x_51_
x_52_
x_53_
x_54_
x_55_
x_56_
x_57_
x_58_
x_59_
x_60_
x_61_
x_62_
x_63_
x_64_
x_65_
x_66_
x_67_
x_68_
x_69_
x_70_
x_71_
x_72_
x_73_
x_74_
x_75_
x_76_
x_77_
x_78_
x_79_
x_80_
x_81_
x_82_
x_83_
x_84_
x_85_
x_86_
x_87_
x_88_
x_89_
x_90_
x_91_
x_92_
x_93_
x_94_
x_95_
x_96_
x_97_
x_98_
x_99_
x_100_
x_101_
x_102_
x_103_
x_104_
x_105_
x_106_
x_107_
x_108_
x_109_
x_110_
x_111_
x_112_
x_113_
x_114_
x_115_
x_116_
x_117_
x_118_
x_119_
x_120_
x_121_
x_122_
x_123_
x_124_
x_125_
x_126_
x_127_
x_128_
x_129_
x_130_
x_131_
x_132_
x_133_
x_134_
x_135_
x_136_
x_137_
x_138_
x_139_
x_140_
x_141_
x_142_
x_143_
x_144_
x_145_
x_146_
x_147_
x_148_
x_149_
x_150_
x_151_
x_152_
x_153_
x_154_
x_155_
x_156_
x_157_
x_158_
x_159_
x_160_
x_161_
x_162_
x_163_
x_164_
x_165_
x_166_
x_167_
x_168_
x_169_
x_170_
x_171_
x_172_
x_173_
x_174_
x_175_
x_176_
x_177_
x_178_
x_179_
x_180_
x_181_
x_182_
x_183_
x_184_
x_185_
x_186_
x_187_
x_188_
x_189_
x_190_
x_191_
x_192_
x_193_
x_194_
x_195_
x_196_
x_197_
x_198_
x_199_
x_200_
x_201_
x_202_
x_203_
x_204_
x_205_
x_206_
x_207_
x_208_
x_209_
x_210_
x_211_
x_212_
x_213_
x_214_
x_215_
x_216_
x_217_
x_218_
x_219_
x_220_
x_221_
x_222_
x_223_
x_224_
x_225_
x_226_
x_227_
x_228_
x_229_
x_230_
x_231_
x_232_
x_233_
x_234_
x_235_
x_236_
x_237_
x_238_
x_239_
x_240_
x_241_
x_242_
x_243_
x_244_
x_245_
x_246_
x_247_
x_248_
x_249_
x_250_
End
